proyfinal/src/viki/013/experimentInOfficeAgust.take6.output/fb96a633-1691-47f3-a718-f3c9d04825ee.als.dat
{'cnf.clauses': '118081',
 'cnf.totvars': '69608',
 'conflict literals': '4',
 'conflicts': '4',
 'decisions': '551',
 'memused.mb': '14.74',
 'outcome': 'UNSAT',
 'propagations': '20086',
 'restarts': '1',
 'solver.msecs': 35,
 'task.msecs': 81}
