proyfinal/src/viki/013/experimentInOfficeAgust.take6.output/fb96a633-1691-47f3-a718-f3c9d04825ee.als.out
Reading from standard input... Use '--help' for help.
============================[ Problem Statistics ]=============================
|                                                                             |
|  Number of variables:         69608                                         |
|  Number of clauses:          118081                                         |
|  Parse time:                   0.03 s                                       |
|                                                                             |
============================[ Search Statistics ]==============================
| Conflicts |          ORIGINAL         |          LEARNT          | Progress |
|           |    Vars  Clauses Literals |    Limit  Clauses Lit/Cl |          |
===============================================================================
===============================================================================
restarts              : 1
conflicts             : 4              (113 /sec)
decisions             : 551            (0.00 % random) (15633 /sec)
propagations          : 20086          (569864 /sec)
conflict literals     : 4              (0.00 % deleted)
Memory used           : 14.74 MB
CPU time              : 0.035247 s

UNSATISFIABLE
